num_clientes = 4;
num_dias = 3;
num_plantas = 3;
min_porcent_demanda = 45;
reg_alto_dias = 5;
reg_alto_porcent = 75;
costo = [46, 22, 30];
capacidad = [1000, 300, 550];
pago = [64, 62, 61, 63];
demanda = [| 310, 320, 330, 340
          | 320, 330, 340, 350
          | 330, 340, 350, 360 |];
